NAME : B-n10-k5
COMMENT : (Augerat et al, No of trucks: 5, Optimal value: 788)
TYPE : CVRP
DIMENSION : 34
EDGE_WEIGHT_TYPE : EUC_2D 
CAPACITY : 70
NODE_COORD_SECTION 
 1 28 57
 2 76 46
 3 67 5
 4 84 22
 5 73 6
 6 67 72
 7 68 74
 8 68 6
 9 76 7
 10 91 30
DEMAND_SECTION 
1 0 
2 6 
3 12 
4 2 
5 24 
6 3 
7 18 
8 21 
9 14 
10 69 
DEPOT_SECTION 
 1  
 -1  
EOF 
